DIMENSION: 12
EDGE_WEIGHT_TYPE: EXPLICIT
EDGE_WEIGHT_FORMAT: FULL_MATRIX
EDGE_WEIGHT_SECTION:
32767 32767 94 11 9 48 32767 94 32767 60 98 87 
32767 32767 60 59 32767 44 32767 32767 32767 32767 32767 27 
94 60 32767 32767 89 32767 32767 32767 80 93 32767 53 
11 59 32767 32767 32767 65 32767 24 32767 55 18 32767 
9 32767 89 32767 32767 32767 41 32767 32767 32767 95 11 
48 44 32767 65 32767 32767 63 69 32767 33 6 78 
32767 32767 32767 32767 41 63 32767 98 45 68 7 32767 
94 32767 32767 24 32767 69 98 32767 79 32767 32767 78 
32767 32767 80 32767 32767 32767 45 79 32767 56 24 32767 
60 32767 93 55 32767 33 68 32767 56 32767 32767 27 
98 32767 32767 18 95 6 7 32767 24 32767 32767 32767 
87 27 53 32767 11 78 32767 78 32767 27 32767 32767 
EOF